p cnf 32 93
a 20 23 0
e 1 2 3 4 5 6 7 8 9 10 11 12 13 14 15 16 17 18 19 21 22 24 25 26 27 28 29 30 31 32 0
1 -2 -3 0
-1 2 -3 0
1 2 3 0
-1 -2 3 0
-3 4 -5 0
3 -4 -5 0
-3 -4 5 0
3 4 5 0
-7 5 0
-7 -6 0
-5 6 7 0
-9 -8 0
-9 -4 0
8 4 9 0
10 -9 0
10 -1 0
9 1 -10 0
-6 10 -11 0
6 -10 -11 0
-6 -10 11 0
6 10 11 0
1 -5 -12 0
-1 5 -12 0
1 5 12 0
-1 -5 12 0
-6 -12 -13 0
6 12 -13 0
-6 12 13 0
6 -12 13 0
-14 8 0
-14 -5 0
-8 5 14 0
-1 9 -15 0
1 -9 -15 0
-1 -9 15 0
1 9 15 0
16 14 0
16 15 0
-14 -15 -16 0
18 4 0
18 17 0
-4 -17 -18 0
-20 -9 0
-20 19 0
9 -19 20 0
1 -2 -21 0
-1 2 -21 0
1 2 21 0
-1 -2 21 0
-20 -21 -22 0
20 21 -22 0
-20 21 22 0
20 -21 22 0
23 18 0
23 22 0
-18 -22 -23 0
9 1 -24 0
-9 -1 -24 0
9 -1 24 0
-9 1 24 0
-26 -2 0
-26 25 0
2 -25 26 0
-27 -24 0
-27 26 0
24 -26 27 0
-28 -23 0
-28 -27 0
23 27 28 0
16 -28 -29 0
-16 28 -29 0
16 28 29 0
-16 -28 29 0
13 -29 -30 0
-13 29 -30 0
13 29 30 0
-13 -29 30 0
-11 -30 -31 0
11 30 -31 0
-11 30 31 0
11 -30 31 0
32 7 0
32 -31 0
-7 31 -32 0
14 -27 -11 3 0
29 -7 16 0
-8 30 23 16 0
-16 3 -31 -6 2 -32 9 0
-11 -19 -12 -14 13 2 0
-9 5 19 0
-25 -32 30 -29 0
22 -30 32 -10 -31 25 0
32 0
